letting n =  10
letting blocks =  [[1, 5], [1, 6], [1, 9], [2, 3], [2, 6], [3, 3], [3, 4], [3, 7], [3, 8], [4, 4], [4, 9], [5, 3], [5, 5], [5, 9], [6, 5], [6, 6], [6, 9], [7, 8], [7, 9], [8, 6], [9, 1], [9, 3], [9, 9], [9, 10]]
